
n_res = 6;
rcap = [91, 91, 476, 569, 491, 533];
rtype = [1, 1, 2, 2, 2, 2];
n_tasks = 50;
modes =  [{1, 2, 3, 4, 5, 6}, {7, 8, 9, 10, 11, 12}, {13, 14, 15, 16, 17, 18}, {19, 20, 21, 22, 23, 24}, {25, 26, 27, 28, 29, 30}, {31, 32, 33, 34, 35, 36}, {37, 38, 39, 40, 41, 42}, {43, 44, 45, 46, 47, 48}, {49, 50, 51, 52, 53, 54}, {55, 56, 57, 58, 59, 60}, {61, 62, 63, 64, 65, 66}, {67, 68, 69, 70, 71, 72}, {73, 74, 75, 76, 77, 78}, {79, 80, 81, 82, 83, 84}, {85, 86, 87, 88, 89, 90}, {91, 92, 93, 94, 95, 96}, {97, 98, 99, 100, 101, 102}, {103, 104, 105, 106, 107, 108}, {109, 110, 111, 112, 113, 114}, {115, 116, 117, 118, 119, 120}, {121, 122, 123, 124, 125, 126}, {127, 128, 129, 130, 131, 132}, {133, 134, 135, 136, 137, 138}, {139, 140, 141, 142, 143, 144}, {145, 146, 147, 148, 149, 150}, {151, 152, 153, 154, 155, 156}, {157, 158, 159, 160, 161, 162}, {163, 164, 165, 166, 167, 168}, {169, 170, 171, 172, 173, 174}, {175, 176, 177, 178, 179, 180}, {181, 182, 183, 184, 185, 186}, {187, 188, 189, 190, 191, 192}, {193, 194, 195, 196, 197, 198}, {199, 200, 201, 202, 203, 204}, {205, 206, 207, 208, 209, 210}, {211, 212, 213, 214, 215, 216}, {217, 218, 219, 220, 221, 222}, {223, 224, 225, 226, 227, 228}, {229, 230, 231, 232, 233, 234}, {235, 236, 237, 238, 239, 240}, {241, 242, 243, 244, 245, 246}, {247, 248, 249, 250, 251, 252}, {253, 254, 255, 256, 257, 258}, {259, 260, 261, 262, 263, 264}, {265, 266, 267, 268, 269, 270}, {271, 272, 273, 274, 275, 276}, {277, 278, 279, 280, 281, 282}, {283, 284, 285, 286, 287, 288}, {289, 290, 291, 292, 293, 294}, {295, 296, 297, 298, 299, 300}];
succ =  [{21, 17, 14, 8, 7}, {36, 31, 30, 29, 28, 27, 21, 20, 18, 14}, {23, 16, 15, 11}, {36, 29, 28, 23, 21, 19, 15}, {30, 29, 23, 21, 19, 17}, {31, 27, 23, 19, 18, 16}, {50, 31, 30, 29, 28, 27, 25, 23, 18}, {32, 30, 28, 27, 23, 20}, {36, 29, 25, 23, 17}, {36, 35, 30, 23, 15}, {36, 32, 29, 27, 26, 20}, {36, 23, 19}, {50, 35, 32, 31, 28, 27, 21}, {50, 43, 38, 35, 23}, {50, 44, 43, 37, 34, 32, 31, 27}, {44, 40, 38, 36, 28, 26}, {50, 43, 40, 34, 31, 27}, {44, 40, 38, 32, 26}, {50, 44, 34, 32, 25}, {50, 44, 40, 25}, {44, 43, 42, 41, 38, 34, 33}, {50, 44, 41, 39, 37, 35, 33}, {44, 40, 26}, {50, 49, 38, 31}, {43, 41, 39, 35, 33}, {41, 37, 34, 33}, {48, 42, 41, 38}, {49, 42, 39, 33}, {47, 44, 42, 41}, {41, 38}, {42, 33}, {47, 46, 41}, {48, 47, 46, 45}, {48, 47, 46, 45}, {48, 47, 46, 45}, {50, 49, 48, 46}, {48, 42}, {39}, {47, 46, 45}, {47, 46, 45}, {49, 45}, {46, 45}, {46, 45}, {45}, {}, {}, {}, {}, {}, {}];
n_opt = 300;
dur = [6, 7, 12, 13, 14, 16, 1, 5, 11, 12, 16, 18, 2, 4, 5, 12, 13, 15, 2, 4, 5, 7, 14, 15, 2, 3, 4, 5, 6, 12, 8, 12, 13, 17, 18, 19, 5, 10, 11, 12, 17, 19, 3, 9, 11, 14, 16, 17, 1, 6, 11, 12, 15, 19, 4, 9, 10, 14, 19, 20, 4, 8, 15, 16, 19, 20, 8, 10, 11, 12, 13, 17, 1, 2, 6, 11, 13, 14, 3, 7, 9, 10, 16, 20, 3, 4, 12, 16, 17, 19, 3, 4, 5, 13, 14, 20, 6, 7, 10, 14, 15, 16, 12, 13, 16, 17, 18, 19, 3, 8, 14, 15, 17, 19, 3, 6, 8, 14, 15, 17, 1, 2, 7, 10, 13, 15, 1, 2, 6, 8, 9, 19, 4, 6, 7, 9, 10, 20, 4, 6, 9, 11, 12, 14, 2, 4, 5, 6, 8, 20, 1, 4, 7, 10, 16, 20, 1, 4, 5, 6, 15, 16, 4, 5, 6, 7, 15, 19, 3, 7, 15, 16, 17, 20, 1, 2, 13, 15, 16, 18, 6, 7, 9, 10, 15, 19, 1, 3, 4, 7, 15, 16, 1, 3, 8, 13, 17, 18, 1, 3, 5, 13, 14, 19, 6, 7, 8, 17, 18, 20, 2, 6, 9, 15, 18, 20, 6, 7, 8, 10, 14, 15, 4, 8, 13, 14, 16, 17, 2, 11, 12, 16, 18, 20, 3, 5, 10, 11, 18, 20, 2, 3, 6, 11, 15, 19, 3, 7, 8, 14, 18, 19, 8, 9, 13, 14, 18, 20, 4, 5, 14, 15, 16, 20, 1, 4, 5, 6, 16, 20, 1, 4, 7, 8, 11, 17, 3, 4, 12, 13, 14, 15, 3, 4, 6, 11, 18, 20, 4, 7, 8, 13, 14, 15, 1, 5, 8, 10, 12, 15];
rreq = [|19, 16, 11, 8, 7, 4, 13, 13, 11, 9, 7, 5, 16, 15, 15, 14, 14, 14, 9, 8, 6, 5, 4, 4, 11, 10, 9, 7, 7, 5, 18, 18, 16, 15, 14, 13, 16, 15, 13, 12, 11, 9, 18, 18, 17, 17, 16, 15, 13, 12, 12, 11, 10, 8, 17, 16, 14, 14, 12, 11, 14, 13, 12, 12, 11, 10, 11, 10, 8, 7, 6, 6, 13, 9, 7, 6, 5, 3, 3, 3, 3, 3, 3, 3, 14, 14, 11, 10, 8, 8, 9, 8, 7, 6, 6, 4, 19, 19, 19, 19, 18, 18, 3, 2, 2, 1, 1, 1, 11, 11, 9, 9, 8, 7, 18, 12, 10, 9, 6, 2, 12, 10, 10, 9, 8, 8, 5, 5, 5, 4, 3, 3, 8, 8, 7, 7, 6, 6, 17, 13, 10, 10, 5, 4, 15, 13, 9, 8, 4, 2, 7, 6, 6, 5, 5, 5, 16, 15, 14, 14, 13, 13, 11, 11, 10, 9, 8, 7, 8, 6, 4, 4, 2, 2, 6, 6, 5, 4, 3, 3, 18, 16, 15, 14, 14, 13, 19, 16, 15, 13, 10, 9, 14, 14, 14, 14, 14, 14, 18, 13, 12, 11, 9, 5, 8, 8, 7, 7, 7, 6, 20, 16, 14, 12, 10, 8, 20, 17, 16, 15, 15, 13, 18, 17, 16, 15, 14, 13, 19, 19, 19, 19, 18, 18, 7, 7, 6, 6, 5, 4, 16, 15, 15, 15, 15, 15, 8, 6, 5, 5, 3, 2, 20, 18, 16, 14, 13, 12, 12, 12, 11, 10, 10, 9, 4, 3, 3, 2, 2, 2, 18, 18, 17, 17, 17, 16, 12, 12, 11, 10, 7, 6, 15, 13, 12, 9, 4, 4, 15, 15, 12, 10, 9, 8, 18, 18, 17, 17, 17, 16
 |11, 10, 10, 10, 9, 9, 20, 19, 19, 19, 19, 19, 12, 11, 11, 9, 9, 8, 5, 4, 3, 3, 3, 2, 15, 14, 14, 14, 13, 13, 5, 5, 5, 5, 5, 5, 13, 13, 12, 12, 11, 11, 4, 3, 2, 2, 1, 1, 16, 14, 13, 9, 5, 1, 14, 13, 13, 13, 13, 13, 15, 13, 12, 11, 10, 9, 13, 11, 9, 8, 5, 5, 17, 16, 15, 14, 13, 12, 16, 15, 14, 12, 9, 9, 4, 3, 3, 2, 2, 1, 7, 7, 7, 7, 7, 7, 2, 2, 2, 2, 2, 2, 17, 16, 14, 14, 13, 12, 4, 3, 3, 3, 3, 3, 18, 18, 15, 12, 12, 10, 12, 10, 9, 7, 6, 5, 16, 14, 13, 13, 12, 10, 18, 17, 16, 13, 13, 11, 19, 16, 13, 10, 6, 4, 17, 14, 9, 8, 6, 3, 9, 8, 8, 7, 7, 7, 9, 9, 8, 8, 6, 6, 19, 16, 15, 13, 13, 10, 16, 14, 9, 7, 4, 3, 15, 12, 9, 9, 7, 4, 15, 15, 11, 9, 6, 4, 12, 10, 10, 9, 9, 8, 11, 10, 7, 5, 5, 1, 16, 13, 12, 10, 10, 7, 13, 12, 11, 9, 9, 8, 11, 9, 9, 9, 7, 7, 19, 15, 13, 12, 11, 9, 8, 8, 8, 8, 8, 8, 3, 3, 3, 2, 1, 1, 13, 11, 9, 8, 8, 7, 9, 9, 7, 5, 2, 1, 8, 8, 7, 5, 4, 4, 17, 17, 16, 14, 13, 13, 18, 15, 10, 8, 7, 2, 12, 11, 10, 10, 7, 7, 8, 5, 5, 4, 3, 2, 15, 13, 13, 10, 9, 8, 9, 7, 6, 5, 2, 1, 12, 11, 11, 11, 10, 10, 13, 10, 9, 6, 3, 2
 |11, 9, 9, 8, 7, 6, 7, 6, 4, 3, 3, 2, 15, 13, 12, 11, 10, 10, 16, 15, 15, 15, 14, 14, 6, 5, 4, 4, 3, 2, 14, 14, 14, 14, 14, 14, 10, 10, 8, 7, 7, 6, 14, 12, 11, 8, 6, 6, 11, 10, 8, 5, 4, 3, 6, 6, 6, 6, 6, 6, 18, 15, 14, 10, 7, 4, 4, 3, 3, 2, 2, 2, 11, 10, 9, 9, 8, 7, 16, 14, 12, 10, 8, 7, 13, 10, 8, 7, 3, 3, 7, 6, 6, 5, 5, 5, 11, 8, 7, 6, 6, 5, 15, 14, 13, 13, 12, 11, 4, 3, 3, 3, 3, 3, 10, 9, 8, 5, 3, 2, 10, 9, 7, 5, 3, 2, 1, 1, 1, 1, 1, 1, 14, 11, 11, 9, 5, 3, 5, 5, 5, 5, 4, 4, 16, 13, 12, 10, 8, 5, 11, 10, 10, 10, 10, 10, 4, 3, 3, 2, 2, 2, 8, 7, 6, 5, 5, 3, 13, 12, 12, 9, 9, 7, 14, 14, 14, 14, 14, 14, 10, 10, 10, 10, 10, 10, 12, 11, 10, 8, 6, 5, 20, 16, 14, 12, 11, 9, 9, 7, 6, 5, 5, 4, 19, 17, 15, 14, 13, 11, 5, 4, 4, 3, 2, 2, 14, 10, 9, 6, 3, 3, 7, 6, 5, 4, 3, 1, 20, 18, 18, 18, 16, 16, 17, 16, 16, 15, 15, 14, 20, 20, 20, 20, 20, 20, 13, 12, 12, 12, 12, 12, 17, 17, 16, 15, 14, 12, 19, 16, 16, 13, 11, 10, 10, 10, 10, 9, 9, 9, 16, 16, 15, 15, 14, 14, 18, 18, 17, 14, 12, 11, 11, 11, 9, 8, 7, 6, 15, 14, 14, 13, 13, 12, 10, 8, 8, 7, 6, 5
 |18, 13, 10, 10, 7, 1, 12, 9, 8, 6, 3, 3, 8, 8, 8, 8, 7, 7, 15, 14, 14, 12, 11, 11, 18, 17, 15, 14, 13, 13, 13, 13, 13, 12, 12, 12, 17, 16, 15, 13, 13, 12, 19, 16, 16, 14, 13, 12, 5, 4, 4, 3, 2, 2, 13, 11, 10, 9, 7, 6, 20, 16, 14, 11, 7, 3, 15, 14, 14, 12, 11, 11, 15, 13, 12, 10, 6, 3, 16, 15, 14, 13, 12, 12, 18, 18, 17, 16, 14, 14, 13, 9, 8, 6, 3, 3, 5, 4, 4, 3, 3, 3, 7, 6, 6, 5, 5, 5, 17, 17, 17, 16, 16, 16, 14, 13, 13, 13, 12, 12, 18, 13, 9, 9, 5, 1, 19, 18, 17, 17, 16, 16, 19, 16, 13, 12, 9, 8, 17, 16, 16, 16, 14, 14, 18, 15, 15, 13, 10, 10, 13, 12, 10, 10, 8, 6, 9, 9, 9, 8, 8, 7, 12, 12, 12, 12, 12, 12, 6, 6, 6, 6, 6, 6, 9, 8, 6, 5, 5, 3, 10, 9, 7, 6, 6, 5, 20, 19, 19, 18, 17, 17, 8, 8, 7, 7, 6, 6, 10, 9, 8, 8, 6, 6, 16, 14, 11, 11, 10, 8, 15, 11, 9, 6, 3, 3, 13, 12, 12, 12, 12, 12, 13, 13, 13, 13, 12, 12, 14, 12, 10, 7, 5, 4, 14, 12, 11, 10, 9, 7, 17, 14, 13, 11, 11, 8, 15, 15, 15, 15, 15, 15, 18, 18, 18, 18, 18, 18, 6, 6, 6, 6, 6, 6, 14, 13, 12, 12, 12, 11, 19, 16, 15, 15, 13, 13, 19, 18, 16, 15, 14, 14, 3, 2, 2, 2, 2, 2, 19, 19, 19, 19, 19, 19, 15, 15, 15, 14, 14, 13
 |14, 13, 12, 10, 9, 7, 10, 10, 9, 9, 9, 8, 17, 15, 15, 14, 13, 11, 11, 10, 9, 8, 8, 7, 6, 6, 6, 6, 6, 6, 4, 4, 4, 4, 4, 4, 16, 14, 12, 11, 10, 8, 18, 13, 12, 9, 5, 4, 5, 5, 5, 4, 4, 4, 15, 14, 12, 10, 9, 8, 11, 10, 10, 9, 9, 9, 8, 6, 6, 4, 4, 3, 15, 11, 11, 8, 6, 5, 16, 12, 12, 10, 9, 6, 13, 12, 10, 8, 7, 5, 16, 13, 12, 9, 6, 4, 5, 5, 5, 4, 4, 4, 19, 14, 13, 12, 8, 5, 12, 10, 9, 9, 8, 7, 13, 10, 10, 9, 7, 7, 11, 10, 10, 10, 9, 9, 16, 15, 13, 10, 7, 3, 16, 11, 9, 8, 5, 2, 3, 3, 3, 3, 3, 3, 18, 16, 14, 13, 11, 11, 16, 15, 14, 14, 13, 12, 5, 5, 5, 5, 4, 4, 15, 11, 10, 7, 4, 4, 18, 17, 17, 16, 14, 14, 20, 14, 12, 8, 7, 5, 11, 11, 11, 11, 11, 11, 9, 9, 7, 6, 5, 5, 16, 15, 15, 13, 12, 12, 8, 8, 7, 5, 3, 2, 15, 14, 13, 12, 12, 10, 11, 11, 10, 9, 7, 7, 13, 10, 9, 9, 6, 6, 17, 17, 17, 17, 17, 17, 14, 11, 11, 8, 4, 1, 14, 13, 11, 10, 9, 8, 13, 12, 11, 11, 10, 10, 5, 4, 4, 3, 2, 2, 17, 12, 10, 8, 6, 6, 8, 8, 8, 8, 8, 8, 18, 18, 17, 17, 16, 16, 12, 9, 9, 8, 7, 5, 18, 15, 13, 8, 7, 2, 12, 10, 7, 7, 3, 2, 20, 15, 13, 12, 10, 5, 15, 14, 13, 11, 10, 10
 |8, 8, 7, 6, 4, 4, 4, 3, 3, 3, 3, 3, 19, 16, 15, 14, 13, 10, 9, 9, 8, 5, 4, 3, 17, 14, 12, 10, 9, 8, 13, 10, 9, 8, 7, 5, 16, 13, 13, 9, 9, 6, 5, 4, 4, 4, 3, 3, 19, 17, 16, 16, 15, 14, 8, 8, 7, 6, 4, 4, 16, 13, 12, 12, 11, 10, 20, 18, 17, 15, 14, 13, 16, 13, 10, 8, 6, 4, 13, 12, 9, 8, 4, 1, 18, 18, 15, 14, 12, 11, 19, 15, 15, 14, 12, 10, 13, 13, 9, 8, 5, 5, 18, 17, 16, 12, 11, 10, 7, 6, 6, 5, 5, 4, 9, 8, 8, 8, 7, 7, 10, 9, 9, 7, 7, 6, 19, 19, 17, 17, 15, 15, 17, 14, 14, 13, 12, 11, 11, 11, 11, 10, 10, 9, 18, 15, 10, 8, 6, 2, 16, 13, 11, 10, 5, 4, 19, 17, 16, 14, 13, 13, 11, 10, 9, 6, 6, 3, 18, 16, 13, 12, 9, 6, 9, 8, 8, 7, 6, 6, 9, 9, 7, 6, 4, 2, 12, 11, 9, 8, 7, 6, 18, 15, 11, 8, 7, 1, 9, 8, 7, 7, 6, 6, 6, 6, 6, 6, 5, 5, 18, 14, 10, 8, 4, 3, 3, 3, 3, 3, 3, 3, 15, 12, 9, 5, 4, 3, 16, 14, 13, 13, 12, 10, 16, 16, 15, 15, 14, 13, 17, 15, 15, 14, 13, 13, 20, 19, 17, 17, 15, 15, 14, 11, 10, 6, 5, 4, 16, 12, 11, 6, 4, 2, 20, 19, 17, 17, 16, 15, 19, 15, 14, 12, 9, 7, 8, 7, 7, 7, 6, 6, 16, 12, 11, 10, 8, 5, 20, 20, 20, 20, 20, 20, 20, 18, 15, 12, 10, 10|];